784 1568
1 2 1
1 29 3
2 3 4
2 30 3
3 4 2
3 31 1
4 5 2
4 32 3
5 6 1
5 33 3
6 7 2
6 34 4
7 8 3
7 35 4
8 9 1
8 36 2
9 10 2
9 37 4
10 11 5
10 38 5
11 12 1
11 39 5
12 13 1
12 40 1
13 14 1
13 41 4
14 15 3
14 42 4
15 16 5
15 43 2
16 17 4
16 44 1
17 18 2
17 45 3
18 19 4
18 46 5
19 20 2
19 47 4
20 21 3
20 48 4
21 22 4
21 49 5
22 23 1
22 50 4
23 24 5
23 51 4
24 25 1
24 52 3
25 26 3
25 53 1
26 27 2
26 54 2
27 28 5
27 55 5
28 56 4
29 30 2
29 57 2
30 31 3
30 58 5
31 32 1
31 59 2
32 33 5
32 60 2
33 34 5
33 61 3
34 35 1
34 62 1
35 36 3
35 63 1
36 37 3
36 64 3
37 38 5
37 65 2
38 39 5
38 66 3
39 40 2
39 67 1
40 41 3
40 68 1
41 42 5
41 69 5
42 43 5
42 70 2
43 44 5
43 71 3
44 45 1
44 72 1
45 46 1
45 73 4
46 47 1
46 74 5
47 48 1
47 75 1
48 49 2
48 76 5
49 50 5
49 77 1
50 51 2
50 78 4
51 52 4
51 79 3
52 53 4
52 80 4
53 54 5
53 81 4
54 55 2
54 82 3
55 56 4
55 83 5
56 84 2
57 58 5
57 85 1
58 59 3
58 86 1
59 60 4
59 87 4
60 61 4
60 88 1
61 62 5
61 89 5
62 63 1
62 90 3
63 64 1
63 91 2
64 65 5
64 92 3
65 66 5
65 93 5
66 67 2
66 94 3
67 68 3
67 95 5
68 69 3
68 96 2
69 70 1
69 97 3
70 71 1
70 98 5
71 72 4
71 99 1
72 73 4
72 100 2
73 74 4
73 101 2
74 75 4
74 102 2
75 76 1
75 103 4
76 77 5
76 104 3
77 78 1
77 105 4
78 79 5
78 106 2
79 80 3
79 107 5
80 81 2
80 108 4
81 82 5
81 109 4
82 83 5
82 110 1
83 84 5
83 111 3
84 112 1
85 86 5
85 113 5
86 87 1
86 114 2
87 88 3
87 115 5
88 89 5
88 116 5
89 90 1
89 117 3
90 91 3
90 118 2
91 92 3
91 119 5
92 93 4
92 120 2
93 94 4
93 121 4
94 95 4
94 122 4
95 96 3
95 123 1
96 97 5
96 124 4
97 98 2
97 125 3
98 99 4
98 126 3
99 100 4
99 127 3
100 101 2
100 128 5
101 102 1
101 129 5
102 103 3
102 130 3
103 104 3
103 131 5
104 105 3
104 132 1
105 106 2
105 133 3
106 107 5
106 134 5
107 108 3
107 135 3
108 109 1
108 136 3
109 110 3
109 137 3
110 111 4
110 138 4
111 112 2
111 139 3
112 140 1
113 114 1
113 141 5
114 115 1
114 142 2
115 116 5
115 143 3
116 117 2
116 144 5
117 118 3
117 145 4
118 119 3
118 146 5
119 120 3
119 147 1
120 121 2
120 148 1
121 122 2
121 149 3
122 123 1
122 150 3
123 124 1
123 151 1
124 125 4
124 152 3
125 126 2
125 153 3
126 127 1
126 154 3
127 128 5
127 155 5
128 129 3
128 156 4
129 130 4
129 157 3
130 131 2
130 158 4
131 132 5
131 159 5
132 133 2
132 160 5
133 134 3
133 161 2
134 135 3
134 162 3
135 136 4
135 163 4
136 137 4
136 164 2
137 138 2
137 165 5
138 139 4
138 166 2
139 140 3
139 167 2
140 168 4
141 142 4
141 169 2
142 143 4
142 170 1
143 144 2
143 171 2
144 145 1
144 172 3
145 146 4
145 173 1
146 147 3
146 174 2
147 148 3
147 175 1
148 149 5
148 176 2
149 150 5
149 177 3
150 151 2
150 178 2
151 152 2
151 179 1
152 153 5
152 180 5
153 154 5
153 181 1
154 155 3
154 182 2
155 156 4
155 183 1
156 157 4
156 184 4
157 158 2
157 185 4
158 159 2
158 186 4
159 160 3
159 187 1
160 161 5
160 188 1
161 162 4
161 189 4
162 163 5
162 190 4
163 164 3
163 191 1
164 165 4
164 192 5
165 166 4
165 193 1
166 167 3
166 194 2
167 168 2
167 195 3
168 196 2
169 170 5
169 197 3
170 171 1
170 198 2
171 172 4
171 199 3
172 173 4
172 200 5
173 174 1
173 201 3
174 175 5
174 202 3
175 176 3
175 203 1
176 177 5
176 204 1
177 178 1
177 205 3
178 179 4
178 206 5
179 180 1
179 207 4
180 181 5
180 208 5
181 182 3
181 209 3
182 183 2
182 210 5
183 184 2
183 211 4
184 185 4
184 212 2
185 186 4
185 213 5
186 187 5
186 214 2
187 188 1
187 215 2
188 189 4
188 216 3
189 190 1
189 217 5
190 191 3
190 218 4
191 192 2
191 219 2
192 193 2
192 220 1
193 194 4
193 221 1
194 195 3
194 222 3
195 196 2
195 223 4
196 224 4
197 198 2
197 225 3
198 199 5
198 226 2
199 200 1
199 227 3
200 201 5
200 228 2
201 202 4
201 229 3
202 203 1
202 230 1
203 204 1
203 231 4
204 205 2
204 232 3
205 206 3
205 233 2
206 207 1
206 234 2
207 208 3
207 235 1
208 209 5
208 236 1
209 210 2
209 237 5
210 211 4
210 238 4
211 212 5
211 239 3
212 213 1
212 240 4
213 214 3
213 241 1
214 215 4
214 242 4
215 216 1
215 243 2
216 217 1
216 244 3
217 218 3
217 245 3
218 219 4
218 246 1
219 220 3
219 247 3
220 221 5
220 248 5
221 222 5
221 249 5
222 223 5
222 250 5
223 224 4
223 251 5
224 252 1
225 226 3
225 253 2
226 227 1
226 254 2
227 228 3
227 255 3
228 229 4
228 256 3
229 230 2
229 257 3
230 231 5
230 258 5
231 232 2
231 259 1
232 233 5
232 260 3
233 234 4
233 261 3
234 235 4
234 262 2
235 236 3
235 263 4
236 237 4
236 264 4
237 238 2
237 265 4
238 239 5
238 266 4
239 240 2
239 267 2
240 241 3
240 268 2
241 242 5
241 269 3
242 243 5
242 270 4
243 244 2
243 271 3
244 245 5
244 272 5
245 246 2
245 273 5
246 247 1
246 274 3
247 248 5
247 275 2
248 249 3
248 276 1
249 250 3
249 277 5
250 251 5
250 278 5
251 252 4
251 279 1
252 280 5
253 254 2
253 281 2
254 255 5
254 282 5
255 256 5
255 283 5
256 257 1
256 284 5
257 258 1
257 285 1
258 259 5
258 286 2
259 260 3
259 287 4
260 261 5
260 288 5
261 262 2
261 289 1
262 263 4
262 290 2
263 264 1
263 291 2
264 265 3
264 292 5
265 266 1
265 293 2
266 267 4
266 294 4
267 268 1
267 295 3
268 269 3
268 296 1
269 270 2
269 297 2
270 271 3
270 298 2
271 272 1
271 299 3
272 273 3
272 300 1
273 274 2
273 301 5
274 275 1
274 302 5
275 276 5
275 303 5
276 277 4
276 304 5
277 278 4
277 305 2
278 279 1
278 306 2
279 280 3
279 307 2
280 308 1
281 282 5
281 309 3
282 283 1
282 310 1
283 284 4
283 311 1
284 285 2
284 312 1
285 286 2
285 313 4
286 287 1
286 314 5
287 288 1
287 315 4
288 289 3
288 316 1
289 290 1
289 317 5
290 291 2
290 318 3
291 292 4
291 319 2
292 293 4
292 320 3
293 294 4
293 321 3
294 295 1
294 322 2
295 296 2
295 323 5
296 297 4
296 324 4
297 298 3
297 325 5
298 299 4
298 326 4
299 300 2
299 327 3
300 301 5
300 328 2
301 302 5
301 329 3
302 303 4
302 330 4
303 304 1
303 331 2
304 305 4
304 332 1
305 306 2
305 333 2
306 307 3
306 334 4
307 308 1
307 335 1
308 336 4
309 310 3
309 337 4
310 311 3
310 338 1
311 312 5
311 339 3
312 313 5
312 340 2
313 314 5
313 341 1
314 315 2
314 342 5
315 316 3
315 343 2
316 317 5
316 344 4
317 318 1
317 345 3
318 319 4
318 346 3
319 320 1
319 347 3
320 321 3
320 348 3
321 322 4
321 349 3
322 323 4
322 350 2
323 324 4
323 351 2
324 325 3
324 352 2
325 326 2
325 353 5
326 327 2
326 354 2
327 328 5
327 355 1
328 329 3
328 356 1
329 330 2
329 357 2
330 331 4
330 358 2
331 332 3
331 359 5
332 333 5
332 360 5
333 334 1
333 361 4
334 335 4
334 362 4
335 336 1
335 363 4
336 364 2
337 338 4
337 365 4
338 339 4
338 366 4
339 340 3
339 367 2
340 341 2
340 368 5
341 342 4
341 369 2
342 343 5
342 370 5
343 344 3
343 371 2
344 345 5
344 372 4
345 346 2
345 373 2
346 347 5
346 374 2
347 348 1
347 375 2
348 349 3
348 376 4
349 350 3
349 377 2
350 351 4
350 378 2
351 352 4
351 379 3
352 353 3
352 380 3
353 354 5
353 381 1
354 355 2
354 382 5
355 356 5
355 383 1
356 357 1
356 384 4
357 358 3
357 385 4
358 359 4
358 386 5
359 360 3
359 387 4
360 361 3
360 388 4
361 362 4
361 389 5
362 363 3
362 390 3
363 364 2
363 391 5
364 392 5
365 366 2
365 393 3
366 367 4
366 394 3
367 368 5
367 395 2
368 369 5
368 396 2
369 370 2
369 397 5
370 371 4
370 398 1
371 372 5
371 399 5
372 373 3
372 400 4
373 374 2
373 401 4
374 375 4
374 402 3
375 376 2
375 403 3
376 377 3
376 404 4
377 378 1
377 405 1
378 379 1
378 406 5
379 380 1
379 407 1
380 381 1
380 408 3
381 382 2
381 409 2
382 383 4
382 410 1
383 384 3
383 411 5
384 385 3
384 412 1
385 386 2
385 413 1
386 387 3
386 414 3
387 388 1
387 415 3
388 389 3
388 416 4
389 390 4
389 417 5
390 391 4
390 418 5
391 392 1
391 419 2
392 420 1
393 394 1
393 421 5
394 395 3
394 422 3
395 396 5
395 423 5
396 397 2
396 424 1
397 398 4
397 425 3
398 399 2
398 426 2
399 400 3
399 427 4
400 401 3
400 428 2
401 402 1
401 429 2
402 403 4
402 430 1
403 404 4
403 431 1
404 405 4
404 432 3
405 406 1
405 433 5
406 407 1
406 434 5
407 408 4
407 435 5
408 409 2
408 436 1
409 410 3
409 437 1
410 411 2
410 438 5
411 412 3
411 439 3
412 413 1
412 440 2
413 414 3
413 441 1
414 415 2
414 442 3
415 416 4
415 443 1
416 417 5
416 444 5
417 418 4
417 445 4
418 419 4
418 446 3
419 420 4
419 447 2
420 448 5
421 422 3
421 449 2
422 423 1
422 450 2
423 424 3
423 451 4
424 425 2
424 452 2
425 426 4
425 453 1
426 427 4
426 454 3
427 428 1
427 455 1
428 429 4
428 456 2
429 430 3
429 457 1
430 431 2
430 458 5
431 432 4
431 459 5
432 433 1
432 460 1
433 434 4
433 461 3
434 435 5
434 462 3
435 436 4
435 463 3
436 437 3
436 464 1
437 438 1
437 465 4
438 439 5
438 466 2
439 440 4
439 467 2
440 441 4
440 468 3
441 442 1
441 469 5
442 443 4
442 470 2
443 444 5
443 471 3
444 445 3
444 472 3
445 446 2
445 473 4
446 447 1
446 474 3
447 448 1
447 475 2
448 476 2
449 450 5
449 477 5
450 451 1
450 478 2
451 452 4
451 479 1
452 453 4
452 480 4
453 454 1
453 481 5
454 455 3
454 482 2
455 456 4
455 483 1
456 457 5
456 484 4
457 458 3
457 485 5
458 459 5
458 486 4
459 460 2
459 487 3
460 461 1
460 488 4
461 462 4
461 489 4
462 463 5
462 490 1
463 464 2
463 491 3
464 465 1
464 492 2
465 466 5
465 493 1
466 467 2
466 494 3
467 468 2
467 495 5
468 469 2
468 496 1
469 470 1
469 497 5
470 471 1
470 498 2
471 472 1
471 499 3
472 473 1
472 500 3
473 474 3
473 501 4
474 475 1
474 502 4
475 476 1
475 503 5
476 504 5
477 478 2
477 505 5
478 479 2
478 506 4
479 480 4
479 507 1
480 481 1
480 508 5
481 482 2
481 509 2
482 483 1
482 510 5
483 484 4
483 511 2
484 485 1
484 512 5
485 486 2
485 513 1
486 487 4
486 514 4
487 488 5
487 515 4
488 489 5
488 516 4
489 490 3
489 517 1
490 491 4
490 518 4
491 492 2
491 519 1
492 493 5
492 520 3
493 494 4
493 521 2
494 495 2
494 522 3
495 496 3
495 523 3
496 497 3
496 524 4
497 498 2
497 525 4
498 499 3
498 526 3
499 500 4
499 527 3
500 501 3
500 528 2
501 502 5
501 529 3
502 503 4
502 530 2
503 504 2
503 531 1
504 532 5
505 506 2
505 533 3
506 507 3
506 534 5
507 508 2
507 535 5
508 509 5
508 536 1
509 510 3
509 537 5
510 511 5
510 538 3
511 512 5
511 539 3
512 513 4
512 540 1
513 514 1
513 541 5
514 515 4
514 542 1
515 516 2
515 543 5
516 517 3
516 544 5
517 518 2
517 545 1
518 519 2
518 546 5
519 520 1
519 547 1
520 521 3
520 548 1
521 522 4
521 549 1
522 523 2
522 550 3
523 524 3
523 551 5
524 525 5
524 552 5
525 526 5
525 553 5
526 527 1
526 554 1
527 528 4
527 555 3
528 529 3
528 556 1
529 530 1
529 557 3
530 531 2
530 558 2
531 532 1
531 559 5
532 560 1
533 534 3
533 561 4
534 535 4
534 562 3
535 536 1
535 563 2
536 537 2
536 564 5
537 538 1
537 565 2
538 539 5
538 566 5
539 540 2
539 567 5
540 541 5
540 568 3
541 542 2
541 569 1
542 543 2
542 570 3
543 544 3
543 571 5
544 545 1
544 572 3
545 546 2
545 573 2
546 547 2
546 574 2
547 548 3
547 575 3
548 549 5
548 576 1
549 550 1
549 577 5
550 551 3
550 578 4
551 552 4
551 579 4
552 553 3
552 580 5
553 554 3
553 581 2
554 555 1
554 582 3
555 556 3
555 583 3
556 557 1
556 584 3
557 558 3
557 585 5
558 559 4
558 586 4
559 560 5
559 587 3
560 588 2
561 562 1
561 589 2
562 563 1
562 590 3
563 564 3
563 591 3
564 565 2
564 592 1
565 566 1
565 593 2
566 567 5
566 594 4
567 568 5
567 595 1
568 569 4
568 596 1
569 570 5
569 597 2
570 571 3
570 598 3
571 572 3
571 599 4
572 573 4
572 600 3
573 574 1
573 601 5
574 575 4
574 602 2
575 576 1
575 603 1
576 577 1
576 604 4
577 578 1
577 605 5
578 579 2
578 606 4
579 580 1
579 607 3
580 581 5
580 608 5
581 582 4
581 609 2
582 583 1
582 610 4
583 584 4
583 611 4
584 585 5
584 612 5
585 586 1
585 613 2
586 587 1
586 614 1
587 588 1
587 615 4
588 616 5
589 590 1
589 617 1
590 591 2
590 618 1
591 592 5
591 619 1
592 593 2
592 620 3
593 594 4
593 621 3
594 595 2
594 622 2
595 596 2
595 623 2
596 597 5
596 624 5
597 598 4
597 625 4
598 599 2
598 626 4
599 600 4
599 627 2
600 601 5
600 628 4
601 602 1
601 629 3
602 603 4
602 630 3
603 604 4
603 631 1
604 605 3
604 632 4
605 606 1
605 633 2
606 607 4
606 634 4
607 608 1
607 635 5
608 609 4
608 636 2
609 610 5
609 637 2
610 611 1
610 638 4
611 612 4
611 639 1
612 613 1
612 640 5
613 614 1
613 641 2
614 615 1
614 642 2
615 616 3
615 643 3
616 644 5
617 618 3
617 645 5
618 619 3
618 646 4
619 620 2
619 647 5
620 621 5
620 648 4
621 622 1
621 649 3
622 623 1
622 650 3
623 624 3
623 651 5
624 625 1
624 652 5
625 626 3
625 653 3
626 627 2
626 654 4
627 628 3
627 655 2
628 629 1
628 656 5
629 630 2
629 657 1
630 631 1
630 658 2
631 632 3
631 659 2
632 633 4
632 660 5
633 634 4
633 661 2
634 635 4
634 662 1
635 636 5
635 663 1
636 637 2
636 664 3
637 638 1
637 665 2
638 639 5
638 666 1
639 640 5
639 667 4
640 641 2
640 668 2
641 642 5
641 669 3
642 643 2
642 670 3
643 644 5
643 671 2
644 672 3
645 646 1
645 673 1
646 647 2
646 674 5
647 648 5
647 675 5
648 649 1
648 676 4
649 650 3
649 677 4
650 651 5
650 678 2
651 652 1
651 679 3
652 653 4
652 680 5
653 654 1
653 681 5
654 655 4
654 682 5
655 656 5
655 683 4
656 657 3
656 684 4
657 658 2
657 685 5
658 659 1
658 686 4
659 660 4
659 687 5
660 661 2
660 688 5
661 662 3
661 689 5
662 663 2
662 690 3
663 664 1
663 691 3
664 665 2
664 692 5
665 666 5
665 693 2
666 667 5
666 694 2
667 668 2
667 695 3
668 669 1
668 696 5
669 670 1
669 697 1
670 671 1
670 698 4
671 672 3
671 699 1
672 700 1
673 674 3
673 701 4
674 675 3
674 702 3
675 676 1
675 703 2
676 677 1
676 704 4
677 678 3
677 705 3
678 679 3
678 706 3
679 680 5
679 707 4
680 681 4
680 708 5
681 682 5
681 709 4
682 683 3
682 710 1
683 684 2
683 711 4
684 685 2
684 712 4
685 686 2
685 713 5
686 687 3
686 714 2
687 688 3
687 715 1
688 689 2
688 716 4
689 690 1
689 717 2
690 691 3
690 718 5
691 692 1
691 719 5
692 693 5
692 720 2
693 694 1
693 721 4
694 695 2
694 722 3
695 696 1
695 723 2
696 697 4
696 724 4
697 698 2
697 725 1
698 699 4
698 726 5
699 700 5
699 727 1
700 728 2
701 702 1
701 729 1
702 703 2
702 730 2
703 704 3
703 731 5
704 705 4
704 732 4
705 706 3
705 733 3
706 707 5
706 734 4
707 708 2
707 735 5
708 709 1
708 736 4
709 710 4
709 737 4
710 711 1
710 738 2
711 712 5
711 739 3
712 713 2
712 740 4
713 714 5
713 741 5
714 715 4
714 742 5
715 716 2
715 743 1
716 717 2
716 744 5
717 718 1
717 745 1
718 719 3
718 746 4
719 720 4
719 747 3
720 721 1
720 748 1
721 722 1
721 749 1
722 723 4
722 750 5
723 724 2
723 751 1
724 725 2
724 752 5
725 726 3
725 753 1
726 727 3
726 754 4
727 728 5
727 755 3
728 756 5
729 730 1
729 757 3
730 731 3
730 758 2
731 732 1
731 759 3
732 733 1
732 760 5
733 734 2
733 761 2
734 735 1
734 762 4
735 736 1
735 763 5
736 737 1
736 764 1
737 738 4
737 765 3
738 739 5
738 766 2
739 740 4
739 767 1
740 741 5
740 768 2
741 742 2
741 769 2
742 743 5
742 770 3
743 744 1
743 771 2
744 745 3
744 772 2
745 746 4
745 773 1
746 747 1
746 774 2
747 748 4
747 775 3
748 749 1
748 776 5
749 750 1
749 777 3
750 751 4
750 778 2
751 752 5
751 779 5
752 753 3
752 780 4
753 754 2
753 781 3
754 755 5
754 782 1
755 756 5
755 783 1
756 784 3
757 758 4
758 759 1
759 760 2
760 761 3
761 762 4
762 763 1
763 764 3
764 765 4
765 766 1
766 767 1
767 768 5
768 769 4
769 770 2
770 771 3
771 772 4
772 773 1
773 774 3
774 775 4
775 776 4
776 777 5
777 778 2
778 779 1
779 780 3
780 781 5
781 782 3
782 783 5
783 784 1
1 757 3
2 758 4
3 759 2
4 760 3
5 761 4
6 762 4
7 763 4
8 764 4
9 765 5
10 766 3
11 767 2
12 768 3
13 769 4
14 770 3
15 771 5
16 772 3
17 773 5
18 774 5
19 775 2
20 776 5
21 777 2
22 778 2
23 779 5
24 780 4
25 781 3
26 782 3
27 783 2
28 784 5
1 28 1
29 56 2
57 84 3
85 112 3
113 140 2
141 168 4
169 196 2
197 224 2
225 252 3
253 280 3
281 308 5
309 336 2
337 364 1
365 392 2
393 420 4
421 448 3
449 476 5
477 504 1
505 532 4
533 560 5
561 588 2
589 616 2
617 644 4
645 672 4
673 700 1
701 728 3
729 756 1
757 784 1
